!*Part, name=coal_hauling_assignment2
!
*NODES
! list of nodes | constrain (x,y,rotation) | x coordinate | y coordinate
    1   1 1 0     24.             0.
    2   0 0 0     25.2218971      6.51275158
    3   0 0 0     22.8253555      7.41640806
    4   0 0 0     21.4176712      5.27668333
    5   0 0 0     19.0211296      6.18033981
    6   0 0 0     17.6134453      4.04061556
    7   0 0 0     26.6295834      8.65247631
    8   0 0 0     15.2169046      4.94427204
    9   0 0 0     13.8092184      2.80454755
   10   0 0 0     11.4126778      3.70820403
   11   0 0 0     5.70633888      1.85410202
   12   0 0 0     29.026123       7.74881935
   13   0 0 0     30.4338093      9.88854408
   14   1 1 0     0.              0.
   15   0 0 0     32.830349       8.98488712
   16   0 0 0     34.2380333      11.1246119
   17   0 0 0     36.6345749      10.2209549
   18   0 0 0     38.0422592      12.3606796
   19   0 0 0     24.244379       1.30255032
   20   0 0 0     24.4887581      2.60510063
   21   0 0 0     24.7331371      3.90765095
   22   0 0 0     24.9775181      5.21020126
   23   0 0 0     24.0236263      6.96457958
   24   0 0 0     22.1215134      6.3465457
   25   0 0 0     20.2194004      5.72851181
   26   0 0 0     18.3172874      5.11047745
   27   0 0 0     18.8815193      4.45263815
   28   0 0 0     20.1495953      4.86466074
   29   0 0 0     22.6857452      5.68870592
   30   0 0 0     23.9538212      6.10072899
   31   0 0 0     25.9257393      7.58261347
   32   0 0 0     24.7274685      8.03444195
   33   0 0 0     18.8907547      3.23249245
   34   0 0 0     20.168066       2.42436934
   35   0 0 0     21.4453773      1.61624622
   36   0 0 0     22.7226887      0.808123112
   37   0 0 0     20.9232426      6.7983737
   38   0 0 0     17.1190166      5.56230593
   39   0 0 0     16.4151745      4.49244356
   40   0 0 0     15.0772934      3.21657014
   41   0 0 0     16.3453693      3.62859273
   42   0 0 0     12.6109486      3.25637579
   43   0 0 0     7.60845232      2.47213602
   44   0 0 0     9.5105648       3.09016991
   45   0 0 0     7.32691479      2.04419112
   46   0 0 0     8.94749069      2.23428011
   47   0 0 0     10.5680666      2.42436934
   48   0 0 0     12.1886425      2.61445832
   49   0 0 0     14.5130615      3.87440968
   50   0 0 0     13.3147917      4.32623816
   51   0 0 0     26.4899712      6.92477417
   52   0 0 0     27.7580471      7.33679676
   53   0 0 0     28.5316963      9.27050972
   54   0 0 0     27.8278522      8.20064735
   55   0 0 0     1.90211308      0.618034005
   56   0 0 0     3.80422616      1.23606801
   57   0 0 0     30.2941971      8.16084194
   58   0 0 0     31.562273       8.57286453
   59   0 0 0     29.7299652      8.81868172
   60   0 0 0     32.3359222      10.5065775
   61   0 0 0     31.6320782      9.43671513
   62   0 0 0     34.098423       9.39690971
   63   0 0 0     35.3665009      9.8089323
   64   0 0 0     33.5341911      10.0547495
   65   0 0 0     36.1401482      11.7426462
   66   0 0 0     35.436306       10.6727839
   67   0 0 0     37.3384171      11.2908173
*ENDNODES
!
*BEAMS
! list of elements | connecting nodes | property number assignment
  1    1   19    3
  2   19   20    3
  3   20   21    3
  4   21   22    3
  5   22    2    3
  6    3   23    2
  7   23    2    2
  8    4   24    2
  9   24    3    2
 10    5   25    2
 11   25    4    2
 12    6   26    2
 13   26    5    2
 14    6   27    3
 15   27   28    3
 16   28    4    3
 17    4   29    3
 18   29   30    3
 19   30    2    3
 20    2   31    2
 21   31    7    2
 22    3   32    1
 23   32    7    1
 24    6   33    3
 25   33   34    3
 26   34   35    3
 27   35   36    3
 28   36    1    3
 29    5   37    1
 30   37    3    1
 31    8   38    1
 32   38    5    1
 33    8   39    2
 34   39    6    2
 35    9   40    3
 36   40   41    3
 37   41    6    3
 38   10   42    2
 39   42    9    2
 40   11   43    1
 41   43   44    1
 42   44   10    1
 43   11   45    3
 44   45   46    3
 45   46   47    3
 46   47   48    3
 47   48    9    3
 48    9   49    2
 49   49    8    2
 50   10   50    1
 51   50    8    1
 52    2   51    3
 53   51   52    3
 54   52   12    3
 55    7   53    1
 56   53   13    1
 57    7   54    2
 58   54   12    2
 59   14   55    1
 60   55   56    1
 61   56   11    1
 62   12   57    3
 63   57   58    3
 64   58   15    3
 65   12   59    2
 66   59   13    2
 67   13   60    1
 68   60   16    1
 69   13   61    2
 70   61   15    2
 71   15   62    3
 72   62   63    3
 73   63   17    3
 74   15   64    2
 75   64   16    2
 76   16   65    1
 77   65   18    1
 78   16   66    2
 79   66   17    2
 80   17   67    2
 81   67   18    2
*ENDBEAMS
!
*PROPERTIES
! property number assignment | m [kg/m] | E*A [N] | E*J [N*m^2]
1 26.2 6.9076e8 5.7380e6
2 8.1 2.1362e8 3.5400e5
3 15.8 4.1586e8 1.7995e6
*ENDPROPERTIES