!*Part, name=coal_hauling_assignment2
!
*NODES
! list of nodes | constrain (x,y,rotation) | x coordinate | y coordinate
    1    1 1 0		24.           0.
    2    0 0 0		25.2218971    6.51275158
    3    0 0 0		22.8253555    7.41640806
    4    0 0 0		21.4176712    5.27668333
    5    0 0 0		19.0211296    6.18033981
    6    0 0 0		17.6134453    4.04061556
    7    0 0 0		26.6295834    8.65247631
    8    0 0 0		15.2169046    4.94427204
    9    0 0 0		13.8092184    2.80454755
   10    0 0 0		11.4126778    3.70820403
   11    0 0 0		5.70633888    1.85410202
   12    0 0 0		29.026123     7.74881935
   13    0 0 0		30.4338093    9.88854408
   14    1 1 0		0.           0.
   15    0 0 0		32.830349     8.98488712
   16    0 0 0		34.2380333    11.1246119
   17    0 0 0		36.6345749    10.2209549
   18    0 0 0		38.0422592    12.3606796
   19    0 0 0		24.407299     2.17091703
   20    0 0 0		24.8145981    4.34183407
   21    0 0 0		19.5155582    4.65864944
   22    0 0 0		23.3197842    5.89471722
   23    0 0 0		19.7422962    2.69374371
   24    0 0 0		21.8711491    1.34687185
   25    0 0 0		15.7113314    3.42258143
   26    0 0 0		8.55950832    2.78115296
   27    0 0 0		8.40729904    2.17091703
   28    0 0 0		11.1082582    2.48773241
   29    0 0 0		27.1240101    7.13078547
   30    0 0 0		2.85316944    0.927051008
   31    0 0 0		30.928236     8.36685371
   32    0 0 0		34.73246      9.60292149
*ENDNODES
!
*BEAMS
! list of elements | connecting nodes | property number assignment
 1   1   19   3
 2  19   20   3
 3  20    2   3
 4   3    2   2
 5   4    3   2
 6   5    4   2
 7   6    5   2
 8   6   21   3
 9  21    4   3
10   4   22   3
11  22    2   3
12   2    7   2
13   3    7   1
14   6   23   3
15  23   24   3
16  24    1   3
17   5    3   1
18   8    5   1
19   8    6   2
20   9   25   3
21  25    6   3
22  10    9   2
23  11   26   1
24  26   10   1
25  11   27   3
26  27   28   3
27  28    9   3
28   9    8   2
29  10    8   1
30   2   29   3
31  29   12   3
32   7   13   1
33   7   12   2
34  14   30   1
35  30   11   1
36  12   31   3
37  31   15   3
38  12   13   2
39  13   16   1
40  13   15   2
41  15   32   3
42  32   17   3
43  15   16   2
44  16   18   1
45  16   17   2
46  17   18   2
*ENDBEAMS
!
*PROPERTIES
! property number assignment | m [kg/m] | E*A [N] | E*J [N*m^2]
1 26.2 6.9076e8 5.7380e6
2 8.1 2.1362e8 3.5400e5
3 15.8 4.1586e8 1.7995e6 
*ENDPROPERTIES