!*Part, name=coal_hauling_assignment2
!
*NODES
! list of nodes | constrain (x,y,rotation) | x coordinate | y coordinate
      1    1 1 0          24.          0.
      2    0 0 0    25.2218971    6.51275158
      3    0 0 0    22.8253555    7.41640806
      4    0 0 0    21.4176712    5.27668333
      5    0 0 0    19.0211296    6.18033981
      6    0 0 0    17.6134453    4.04061556
      7    0 0 0    26.6295834    8.65247631
      8    0 0 0    15.2169046    4.94427204
      9    0 0 0    13.8092184    2.80454755
     10    0 0 0    11.4126778    3.70820403
     11    0 0 0    5.70633888    1.85410202
     12    0 0 0    29.026123    7.74881935
     13    0 0 0    30.4338093    9.88854408
     14    1 1 0          0.          0.
     15    0 0 0    32.830349    8.98488712
     16    0 0 0    34.2380333    11.1246119
     17    0 0 0    36.6345749    10.2209549
     18    0 0 0    38.0422592    12.3606796
     19    0 0 0    24.2036495    1.08545852
     20    0 0 0    24.407299    2.17091703
     21    0 0 0    24.6109486    3.25637579
     22    0 0 0    24.8145981    4.34183407
     23    0 0 0    25.0182476    5.42729282
     24    0 0 0    24.0236263    6.96457958
     25    0 0 0    22.1215134    6.3465457
     26    0 0 0    20.2194004    5.72851181
     27    0 0 0    18.3172874    5.11047745
     28    0 0 0    18.5645008    4.34963226
     29    0 0 0    19.5155582    4.65864944
     30    0 0 0    20.4666138    4.96766663
     31    0 0 0    22.3687267    5.58570051
     32    0 0 0    23.3197842    5.89471722
     33    0 0 0    24.2708397    6.2037344
     34    0 0 0    25.9257393    7.58261347
     35    0 0 0    24.7274685    8.03444195
     36    0 0 0    18.6778698    3.36717963
     37    0 0 0    19.7422962    2.69374371
     38    0 0 0    20.8067226    2.02030778
     39    0 0 0    21.8711491    1.34687185
     40    0 0 0    22.9355736    0.673435926
     41    0 0 0    20.9232426    6.7983737
     42    0 0 0    17.1190166    5.56230593
     43    0 0 0    16.4151745    4.49244356
     44    0 0 0    14.7602749    3.11356449
     45    0 0 0    15.7113314    3.42258143
     46    0 0 0    16.6623878    3.73159838
     47    0 0 0    12.6109486    3.25637579
     48    0 0 0    7.13292408    2.31762743
     49    0 0 0    8.55950832    2.78115296
     50    0 0 0    9.98609352    3.2446785
     51    0 0 0    7.05681896    2.01250958
     52    0 0 0    8.40729904    2.17091703
     53    0 0 0    9.75777912    2.32932472
     54    0 0 0    11.1082582    2.48773241
     55    0 0 0    12.4587383    2.64613986
     56    0 0 0    14.5130615    3.87440968
     57    0 0 0    13.3147917    4.32623816
     58    0 0 0    26.1729527    6.82176828
     59    0 0 0    27.1240101    7.13078547
     60    0 0 0    28.0750656    7.43980265
     61    0 0 0    28.5316963    9.27050972
     62    0 0 0    27.8278522    8.20064735
     63    0 0 0    1.42658472    0.463525504
     64    0 0 0    2.85316944    0.927051008
     65    0 0 0    4.27975416    1.39057648
     66    0 0 0    29.9771786    8.05783653
     67    0 0 0    30.928236    8.36685371
     68    0 0 0    31.8792915    8.67586994
     69    0 0 0    29.7299652    8.81868172
     70    0 0 0    32.3359222    10.5065775
     71    0 0 0    31.6320782    9.43671513
     72    0 0 0    33.7814064    9.2939043
     73    0 0 0    34.73246    9.60292149
     74    0 0 0    35.6835175    9.91193867
     75    0 0 0    33.5341911    10.0547495
     76    0 0 0    36.1401482    11.7426462
     77    0 0 0    35.436306    10.6727839
     78    0 0 0    37.3384171    11.2908173
*ENDNODES
!
*BEAMS
! list of elements | connecting nodes | property number assignment
 1   1  19  3
 2  19  20  3
 3  20  21  3
 4  21  22  3
 5  22  23  3
 6  23   2  3
 7   3  24  2
 8  24   2  2
 9   4  25  2
10  25   3  2
11   5  26  2
12  26   4  2
13   6  27  2
14  27   5  2
15   6  28  3
16  28  29  3
17  29  30  3
18  30   4  3
19   4  31  3
20  31  32  3
21  32  33  3
22  33   2  3
23   2  34  2
24  34   7  2
25   3  35  1
26  35   7  1
27   6  36  3
28  36  37  3
29  37  38  3
30  38  39  3
31  39  40  3
32  40   1  3
33   5  41  1
34  41   3  1
35   8  42  1
36  42   5  1
37   8  43  2
38  43   6  2
39   9  44  3
40  44  45  3
41  45  46  3
42  46   6  3
43  10  47  2
44  47   9  2
45  11  48  1
46  48  49  1
47  49  50  1
48  50  10  1
49  11  51  3
50  51  52  3
51  52  53  3
52  53  54  3
53  54  55  3
54  55   9  3
55   9  56  2
56  56   8  2
57  10  57  1
58  57   8  1
59   2  58  3
60  58  59  3
61  59  60  3
62  60  12  3
63   7  61  1
64  61  13  1
65   7  62  2
66  62  12  2
67  14  63  1
68  63  64  1
69  64  65  1
70  65  11  1
71  12  66  3
72  66  67  3
73  67  68  3
74  68  15  3
75  12  69  2
76  69  13  2
77  13  70  1
78  70  16  1
79  13  71  2
80  71  15  2
81  15  72  3
82  72  73  3
83  73  74  3
84  74  17  3
85  15  75  2
86  75  16  2
87  16  76  1
88  76  18  1
89  16  77  2
90  77  17  2
91  17  78  2
92  78  18  2
*ENDBEAMS
!
*PROPERTIES
! property number assignment | m [kg/m] | E*A [N] | E*J [N*m^2]
1 26.2 6.9076e8 5.7380e6
2 8.1 2.1362e8 3.5400e5
3 15.8 4.1586e8 1.7995e6 
*ENDPROPERTIES