!*Part, name=coal_hauling_assignment2
!
*NODES
! list of nodes | constrain (x,y,rotation) | x coordinate | y coordinate
    1   1 1 0     24.             0.
    2   0 0 0     25.2218971      6.51275158
    3   0 0 0     22.8253555      7.41640806
    4   0 0 0     21.4176712      5.27668333
    5   0 0 0     19.0211296      6.18033981
    6   0 0 0     17.6134453      4.04061556
    7   0 0 0     26.6295834      8.65247631
    8   0 0 0     15.2169046      4.94427204
    9   0 0 0     13.8092184      2.80454755
   10   0 0 0     11.4126778      3.70820403
   11   0 0 0     5.70633888      1.85410202
   12   0 0 0     29.026123       7.74881935
   13   0 0 0     30.4338093      9.88854408
   14   1 1 0     0.              0.
   15   0 0 0     32.830349       8.98488712
   16   0 0 0     34.2380333      11.1246119
   17   0 0 0     36.6345749      10.2209549
   18   0 0 0     38.0422592      12.3606796
   19   0 0 0     24.135767       0.723639071
   20   0 0 0     24.2715321      1.44727814
   21   0 0 0     24.407299       2.17091703
   22   0 0 0     24.543066       2.89455628
   23   0 0 0     24.6788311      3.6181953
   24   0 0 0     24.8145981      4.34183407
   25   0 0 0     24.9503632      5.06547356
   26   0 0 0     25.0861301      5.78911257
   27   0 0 0     23.6242027      7.11518908
   28   0 0 0     24.4230499      6.81397009
   29   0 0 0     21.8868999      5.98992491
   30   0 0 0     22.3561287      6.70316648
   31   0 0 0     19.8199768      5.8791213
   32   0 0 0     20.618824       5.57790232
   33   0 0 0     18.082674       4.75385714
   34   0 0 0     18.5519009      5.46709824
   35   0 0 0     18.2474823      4.24662685
   36   0 0 0     18.8815193      4.45263815
   37   0 0 0     19.5155582      4.65864944
   38   0 0 0     20.1495953      4.86466074
   39   0 0 0     20.7836323      5.07067204
   40   0 0 0     22.0517082      5.48269463
   41   0 0 0     22.6857452      5.68870592
   42   0 0 0     23.3197842      5.89471722
   43   0 0 0     23.9538212      6.10072899
   44   0 0 0     24.5878582      6.30674028
   45   0 0 0     25.6911259      7.22599268
   46   0 0 0     26.1603546      7.93923426
   47   0 0 0     24.0934315      7.82843065
   48   0 0 0     25.3615074      8.24045277
   49   0 0 0     18.323061       3.59165812
   50   0 0 0     19.0326786      3.14270091
   51   0 0 0     19.7422962      2.69374371
   52   0 0 0     20.4519138      2.24478626
   53   0 0 0     21.1615314      1.79582906
   54   0 0 0     21.8711491      1.34687185
   55   0 0 0     22.5807648      0.897914529
   56   0 0 0     23.2903824      0.448957264
   57   0 0 0     20.2892056      6.5923624
   58   0 0 0     21.5572815      7.00438499
   59   0 0 0     16.4849796      5.35629463
   60   0 0 0     17.7530556      5.76831722
   61   0 0 0     16.0157509      4.64305305
   62   0 0 0     16.8145981      4.34183407
   63   0 0 0     14.4432564      3.01055884
   64   0 0 0     15.0772934      3.21657014
   65   0 0 0     15.7113314      3.42258143
   66   0 0 0     16.3453693      3.62859273
   67   0 0 0     16.9794064      3.83460402
   68   0 0 0     12.211525       3.40698504
   69   0 0 0     13.0103712      3.1057663
   70   0 0 0     6.65739584      2.16311908
   71   0 0 0     7.60845232      2.47213602
   72   0 0 0     8.55950832      2.78115296
   73   0 0 0     9.5105648       3.09016991
   74   0 0 0     10.4616213      3.39918685
   75   0 0 0     6.60665894      1.95970702
   76   0 0 0     7.50697899      2.06531215
   77   0 0 0     8.40729904      2.17091703
   78   0 0 0     9.30761909      2.27652216
   79   0 0 0     10.2079391      2.38212729
   80   0 0 0     11.1082582      2.48773241
   81   0 0 0     12.0085783      2.5933373
   82   0 0 0     12.9088984      2.69894242
   83   0 0 0     14.2784472      3.51778889
   84   0 0 0     14.7476759      4.23103046
   85   0 0 0     12.6807537      4.12022638
   86   0 0 0     13.9488287      4.53224945
   87   0 0 0     25.8559341      6.71876287
   88   0 0 0     26.4899712      6.92477417
   89   0 0 0     27.1240101      7.13078547
   90   0 0 0     27.7580471      7.33679676
   91   0 0 0     28.3920841      7.54280806
   92   0 0 0     27.8976574      9.0644989
   93   0 0 0     29.1657333      9.47652149
   94   0 0 0     27.4284286      8.35125732
   95   0 0 0     28.2272758      8.05003834
   96   0 0 0     0.95105654      0.309017003
   97   0 0 0     1.90211308      0.618034005
   98   0 0 0     2.85316944      0.927051008
   99   0 0 0     3.80422616      1.23606801
  100   0 0 0     4.7552824       1.54508495
  101   0 0 0     29.6601601      7.95483065
  102   0 0 0     30.2941971      8.16084194
  103   0 0 0     30.928236       8.36685371
  104   0 0 0     31.562273       8.57286453
  105   0 0 0     32.196312       8.7788763
  106   0 0 0     29.4953518      8.46206093
  107   0 0 0     29.9645805      9.17530251
  108   0 0 0     31.7018833      10.3005667
  109   0 0 0     32.9699593      10.7125893
  110   0 0 0     31.2326546      9.5873251
  111   0 0 0     32.0315018      9.28610611
  112   0 0 0     33.464386       9.1908989
  113   0 0 0     34.098423       9.39690971
  114   0 0 0     34.73246        9.60292149
  115   0 0 0     35.3665009      9.8089323
  116   0 0 0     36.0005379      10.0149441
  117   0 0 0     33.2995758      9.6981287
  118   0 0 0     33.7688065      10.4113703
  119   0 0 0     35.5061111      11.5366344
  120   0 0 0     36.7741852      11.948657
  121   0 0 0     35.0368805      10.8233929
  122   0 0 0     35.8357277      10.5221739
  123   0 0 0     37.1038017      10.9341965
  124   0 0 0     37.5730324      11.647438
*ENDNODES
!
*BEAMS
! list of elements | connecting nodes | property number assignment
  1    1   19    3
  2   19   20    3
  3   20   21    3
  4   21   22    3
  5   22   23    3
  6   23   24    3
  7   24   25    3
  8   25   26    3
  9   26    2    3
 10    3   27    2
 11   27   28    2
 12   28    2    2
 13    4   29    2
 14   29   30    2
 15   30    3    2
 16    5   31    2
 17   31   32    2
 18   32    4    2
 19    6   33    2
 20   33   34    2
 21   34    5    2
 22    6   35    3
 23   35   36    3
 24   36   37    3
 25   37   38    3
 26   38   39    3
 27   39    4    3
 28    4   40    3
 29   40   41    3
 30   41   42    3
 31   42   43    3
 32   43   44    3
 33   44    2    3
 34    2   45    2
 35   45   46    2
 36   46    7    2
 37    3   47    1
 38   47   48    1
 39   48    7    1
 40    6   49    3
 41   49   50    3
 42   50   51    3
 43   51   52    3
 44   52   53    3
 45   53   54    3
 46   54   55    3
 47   55   56    3
 48   56    1    3
 49    5   57    1
 50   57   58    1
 51   58    3    1
 52    8   59    1
 53   59   60    1
 54   60    5    1
 55    8   61    2
 56   61   62    2
 57   62    6    2
 58    9   63    3
 59   63   64    3
 60   64   65    3
 61   65   66    3
 62   66   67    3
 63   67    6    3
 64   10   68    2
 65   68   69    2
 66   69    9    2
 67   11   70    1
 68   70   71    1
 69   71   72    1
 70   72   73    1
 71   73   74    1
 72   74   10    1
 73   11   75    3
 74   75   76    3
 75   76   77    3
 76   77   78    3
 77   78   79    3
 78   79   80    3
 79   80   81    3
 80   81   82    3
 81   82    9    3
 82    9   83    2
 83   83   84    2
 84   84    8    2
 85   10   85    1
 86   85   86    1
 87   86    8    1
 88    2   87    3
 89   87   88    3
 90   88   89    3
 91   89   90    3
 92   90   91    3
 93   91   12    3
 94    7   92    1
 95   92   93    1
 96   93   13    1
 97    7   94    2
 98   94   95    2
 99   95   12    2
100   14   96    1
101   96   97    1
102   97   98    1
103   98   99    1
104   99  100    1
105  100   11    1
106   12  101    3
107  101  102    3
108  102  103    3
109  103  104    3
110  104  105    3
111  105   15    3
112   12  106    2
113  106  107    2
114  107   13    2
115   13  108    1
116  108  109    1
117  109   16    1
118   13  110    2
119  110  111    2
120  111   15    2
121   15  112    3
122  112  113    3
123  113  114    3
124  114  115    3
125  115  116    3
126  116   17    3
127   15  117    2
128  117  118    2
129  118   16    2
130   16  119    1
131  119  120    1
132  120   18    1
133   16  121    2
134  121  122    2
135  122   17    2
136   17  123    2
137  123  124    2
138  124   18    2
*ENDBEAMS
!
*PROPERTIES
! property number assignment | m [kg/m] | E*A [N] | E*J [N*m^2]
1 26.2 6.9076e8 5.7380e6
2 8.1 2.1362e8 3.5400e5
3 15.8 4.1586e8 1.7995e6
*ENDPROPERTIES