    *Part, name=coal_hauling_assignment2
!
*NODES
! list of nodes | constrain (x,y,rotation) | x coordinate | y coordinate
      1    1 1 0          24.           0.
      2    0 0 0    25.2218971   6.51275158
      3    0 0 0    22.8253555   7.41640806
      4    0 0 0    21.4176712   5.27668333
      5    0 0 0    19.0211296   6.18033981
      6    0 0 0    17.6134453   4.04061556
      7    0 0 0    26.6295834   8.65247631
      8    0 0 0    15.2169046   4.94427204
      9    0 0 0    13.8092184   2.80454755
     10    0 0 0    11.4126778   3.70820403
     11    0 0 0    5.70633888   1.85410202
     12    0 0 0    29.026123   7.74881935
     13    0 0 0    30.4338093   9.88854408
     14    1 1 0          0.           0.
     15    0 0 0    32.830349   8.98488712
     16    0 0 0    34.2380333   11.1246119
     17    0 0 0    36.6345749   10.2209549
     18    0 0 0    38.0422592   12.3606796
     19    0 0 0    24.1018238  0.542729259
     20    0 0 0    24.2036495   1.08545852
     21    0 0 0    24.3054733   1.62818789
     22    0 0 0    24.407299   2.17091703
     23    0 0 0    24.5091228   2.71364641
     24    0 0 0    24.6109486   3.25637579
     25    0 0 0    24.7127724   3.79910493
     26    0 0 0    24.8145981   4.34183407
     27    0 0 0    24.9164219   4.88456345
     28    0 0 0    25.0182476   5.42729282
     29    0 0 0    25.1200714    5.9700222
     30    0 0 0    23.4244919   7.19049358
     31    0 0 0    24.0236263   6.96457958
     32    0 0 0    24.6227608   6.73866558
     33    0 0 0    21.7695923   5.81161451
     34    0 0 0    22.1215134    6.3465457
     35    0 0 0    22.4734344   6.88147688
     36    0 0 0    19.620266   5.95442581
     37    0 0 0    20.2194004   5.72851181
     38    0 0 0    20.8185349   5.50259733
     39    0 0 0    17.9653664   4.57554674
     40    0 0 0    18.3172874   5.11047745
     41    0 0 0    18.6692085   5.64540861
     42    0 0 0    18.0889721   4.19512415
     43    0 0 0    18.5645008   4.34963226
     44    0 0 0    19.0400295   4.50414085
     45    0 0 0    19.5155582   4.65864944
     46    0 0 0    19.9910851   4.81315804
     47    0 0 0    20.4666138   4.96766663
     48    0 0 0    20.9421425   5.12217474
     49    0 0 0    21.893198   5.43119192
     50    0 0 0    22.3687267   5.58570051
     51    0 0 0    22.8442554    5.7402091
     52    0 0 0    23.3197842   5.89471722
     53    0 0 0    23.795311   6.04922581
     54    0 0 0    24.2708397    6.2037344
     55    0 0 0    24.7463684   6.35824299
     56    0 0 0    25.5738182   7.04768276
     57    0 0 0    25.9257393   7.58261347
     58    0 0 0    26.2776604   8.11754513
     59    0 0 0    23.776413   7.72542477
     60    0 0 0    24.7274685   8.03444195
     61    0 0 0    25.6785259   8.34345913
     62    0 0 0    18.1456566   3.70389748
     63    0 0 0    18.6778698   3.36717963
     64    0 0 0    19.210083   3.03046155
     65    0 0 0    19.7422962   2.69374371
     66    0 0 0    20.2745094   2.35702562
     67    0 0 0    20.8067226   2.02030778
     68    0 0 0    21.3389359   1.68358982
     69    0 0 0    21.8711491   1.34687185
     70    0 0 0    22.4033604   1.01015389
     71    0 0 0    22.9355736  0.673435926
     72    0 0 0    23.4677868  0.336717963
     73    0 0 0    19.972187   6.48935699
     74    0 0 0    20.9232426    6.7983737
     75    0 0 0      21.8743   7.10739088
     76    0 0 0    16.1679611   5.25328875
     77    0 0 0    17.1190166   5.56230593
     78    0 0 0    18.0700741   5.87132311
     79    0 0 0    15.8160391   4.71835756
     80    0 0 0    16.4151745   4.49244356
     81    0 0 0    17.0143089   4.26652956
     82    0 0 0    14.2847471    2.9590559
     83    0 0 0    14.7602749   3.11356449
     84    0 0 0    15.2358036   3.26807308
     85    0 0 0    15.7113314   3.42258143
     86    0 0 0    16.1868591   3.57709002
     87    0 0 0    16.6623878   3.73159838
     88    0 0 0    17.1379166   3.88610697
     89    0 0 0    12.0118132   3.48228979
     90    0 0 0    12.6109486   3.25637579
     91    0 0 0    13.210083   3.03046155
     92    0 0 0    6.41963148   2.08586478
     93    0 0 0    7.13292408   2.31762743
     94    0 0 0    7.8462162   2.54939032
     95    0 0 0    8.55950832   2.78115296
     96    0 0 0    9.2728014   3.01291561
     97    0 0 0    9.98609352    3.2446785
     98    0 0 0    10.6993856   3.47644114
     99    0 0 0    6.38157892   1.93330574
    100    0 0 0    7.05681896   2.01250958
    101    0 0 0     7.732059   2.09171343
    102    0 0 0    8.40729904   2.17091703
    103    0 0 0    9.0825386   2.25012088
    104    0 0 0    9.75777912   2.32932472
    105    0 0 0    10.4330187   2.40852857
    106    0 0 0    11.1082582   2.48773241
    107    0 0 0    11.7834988   2.56693602
    108    0 0 0    12.4587383   2.64613986
    109    0 0 0    13.1339788    2.7253437
    110    0 0 0    14.1611395   3.33947849
    111    0 0 0    14.5130615   3.87440968
    112    0 0 0    14.8649826   4.40934086
    113    0 0 0    12.3637342   4.01722097
    114    0 0 0    13.3147917   4.32623816
    115    0 0 0    14.2658482   4.63525486
    116    0 0 0    25.6974239   6.66725969
    117    0 0 0    26.1729527   6.82176828
    118    0 0 0    26.6484814   6.97627687
    119    0 0 0    27.1240101   7.13078547
    120    0 0 0    27.5995388   7.28529406
    121    0 0 0    28.0750656   7.43980265
    122    0 0 0    28.5505943   7.59431076
    123    0 0 0    27.5806389   8.96149254
    124    0 0 0    28.5316963   9.27050972
    125    0 0 0    29.4827518    9.5795269
    126    0 0 0    27.2287178   8.42656136
    127    0 0 0    27.8278522   8.20064735
    128    0 0 0    28.4269867   7.97473335
    129    0 0 0    0.71329236  0.231762752
    130    0 0 0    1.42658472  0.463525504
    131    0 0 0    2.13987708  0.695288241
    132    0 0 0    2.85316944  0.927051008
    133    0 0 0    3.56646204   1.15881371
    134    0 0 0    4.27975416   1.39057648
    135    0 0 0    4.99304676   1.62233925
    136    0 0 0    29.5016518   7.90332794
    137    0 0 0    29.9771786   8.05783653
    138    0 0 0    30.4527073   8.21234512
    139    0 0 0    30.928236   8.36685371
    140    0 0 0    31.4037647    8.5213623
    141    0 0 0    31.8792915   8.67586994
    142    0 0 0    32.3548203   8.83037853
    143    0 0 0    29.3780441   8.28375053
    144    0 0 0    29.7299652   8.81868172
    145    0 0 0    30.0818863    9.3536129
    146    0 0 0    31.3848648   10.1975613
    147    0 0 0    32.3359222   10.5065775
    148    0 0 0    33.2869797   10.8155947
    149    0 0 0    31.0329437   9.66263008
    150    0 0 0    31.6320782   9.43671513
    151    0 0 0    32.2312126   9.21080112
    152    0 0 0    33.3058777   9.13939571
    153    0 0 0    33.7814064    9.2939043
    154    0 0 0    34.2569351    9.4484129
    155    0 0 0     34.73246   9.60292149
    156    0 0 0    35.2079887   9.75743008
    157    0 0 0    35.6835175   9.91193867
    158    0 0 0    36.1590462   10.0664473
    159    0 0 0    33.1822701   9.51981831
    160    0 0 0    33.5341911   10.0547495
    161    0 0 0    33.8861122   10.5896807
    162    0 0 0    35.1890907    11.433629
    163    0 0 0    36.1401482   11.7426462
    164    0 0 0    37.0912056   12.0516624
    165    0 0 0    34.8371696   10.8986979
    166    0 0 0    35.436306   10.6727839
    167    0 0 0    36.0354385   10.4468699
    168    0 0 0    36.986496   10.7558861
    169    0 0 0    37.3384171   11.2908173
    170    0 0 0    37.6903381   11.8257484
*ENDNODES
!
*BEAMS
! list of elements | connecting nodes | property number assignment
   1   1  19  3
   2  19  20  3
   3  20  21  3
   4  21  22  3
   5  22  23  3
   6  23  24  3
   7  24  25  3
   8  25  26  3
   9  26  27  3
  10  27  28  3
  11  28  29  3
  12  29   2  3
  13   3  30  2
  14  30  31  2
  15  31  32  2
  16  32   2  2
  17   4  33  2
  18  33  34  2
  19  34  35  2
  20  35   3  2
  21   5  36  2
  22  36  37  2
  23  37  38  2
  24  38   4  2
  25   6  39  2
  26  39  40  2
  27  40  41  2
  28  41   5  2
  29   6  42  3
  30  42  43  3
  31  43  44  3
  32  44  45  3
  33  45  46  3
  34  46  47  3
  35  47  48  3
  36  48   4  3
  37   4  49  3
  38  49  50  3
  39  50  51  3
  40  51  52  3
  41  52  53  3
  42  53  54  3
  43  54  55  3
  44  55   2  3
  45   2  56  2
  46  56  57  2
  47  57  58  2
  48  58   7  2
  49   3  59  1
  50  59  60  1
  51  60  61  1
  52  61   7  1
  53   6  62  3
  54  62  63  3
  55  63  64  3
  56  64  65  3
  57  65  66  3
  58  66  67  3
  59  67  68  3
  60  68  69  3
  61  69  70  3
  62  70  71  3
  63  71  72  3
  64  72   1  3
  65   5  73  1
  66  73  74  1
  67  74  75  1
  68  75   3  1
  69   8  76  1
  70  76  77  1
  71  77  78  1
  72  78   5  1
  73   8  79  2
  74  79  80  2
  75  80  81  2
  76  81   6  2
  77   9  82  3
  78  82  83  3
  79  83  84  3
  80  84  85  3
  81  85  86  3
  82  86  87  3
  83  87  88  3
  84  88   6  3
  85  10  89  2
  86  89  90  2
  87  90  91  2
  88  91   9  2
  89  11  92  1
  90  92  93  1
  91  93  94  1
  92  94  95  1
  93  95  96  1
  94  96  97  1
  95  97  98  1
  96  98  10  1
  97  11  99  3
  98  99 100  3
  99 100 101  3
 100 101 102  3
 101 102 103  3
 102 103 104  3
 103 104 105  3
 104 105 106  3
 105 106 107  3
 106 107 108  3
 107 108 109  3
 108 109   9  3
 109   9 110  2
 110 110 111  2
 111 111 112  2
 112 112   8  2
 113  10 113  1
 114 113 114  1
 115 114 115  1
 116 115   8  1
 117   2 116  3
 118 116 117  3
 119 117 118  3
 120 118 119  3
 121 119 120  3
 122 120 121  3
 123 121 122  3
 124 122  12  3
 125   7 123  1
 126 123 124  1
 127 124 125  1
 128 125  13  1
 129   7 126  2
 130 126 127  2
 131 127 128  2
 132 128  12  2
 133  14 129  1
 134 129 130  1
 135 130 131  1
 136 131 132  1
 137 132 133  1
 138 133 134  1
 139 134 135  1
 140 135  11  1
 141  12 136  3
 142 136 137  3
 143 137 138  3
 144 138 139  3
 145 139 140  3
 146 140 141  3
 147 141 142  3
 148 142  15  3
 149  12 143  2
 150 143 144  2
 151 144 145  2
 152 145  13  2
 153  13 146  1
 154 146 147  1
 155 147 148  1
 156 148  16  1
 157  13 149  2
 158 149 150  2
 159 150 151  2
 160 151  15  2
 161  15 152  3
 162 152 153  3
 163 153 154  3
 164 154 155  3
 165 155 156  3
 166 156 157  3
 167 157 158  3
 168 158  17  3
 169  15 159  2
 170 159 160  2
 171 160 161  2
 172 161  16  2
 173  16 162  1
 174 162 163  1
 175 163 164  1
 176 164  18  1
 177  16 165  2
 178 165 166  2
 179 166 167  2
 180 167  17  2
 181  17 168  2
 182 168 169  2
 183 169 170  2
 184 170  18  2
*ENDBEAMS
!
*PROPERTIES
! property number assignment | m [kg/m] | E*A [N] | E*J [N*m^2]
1 26.2 6.9076e8 5.7380e6
2 8.1 2.1362e8 3.5400e5
3 15.8 4.1586e8 1.7995e6 
*ENDPROPERTIES