! Benchmark 1: Travata da ponte ferroviario 20 metri (20 elementi)
! Condizioni di vincolo: Cerniera al nodo 1 (rx=1, ry=1, rtheta=0), Carrello al nodo 21 (rx=0, ry=1, rtheta=0)

*NODES
! ID  vx vy vtheta  x      y
  1   1  1  0       0.0    0.0
  2   0  0  0       1.0    0.0
  3   0  0  0       2.0    0.0
  4   0  0  0       3.0    0.0
  5   0  0  0       4.0    0.0
  6   0  0  0       5.0    0.0
  7   0  0  0       6.0    0.0
  8   0  0  0       7.0    0.0
  9   0  0  0       8.0    0.0
  10  0  0  0       9.0    0.0
  11  0  0  0       10.0   0.0
  12  0  0  0       11.0   0.0
  13  0  0  0       12.0   0.0
  14  0  0  0       13.0   0.0
  15  0  0  0       14.0   0.0
  16  0  0  0       15.0   0.0
  17  0  0  0       16.0   0.0
  18  0  0  0       17.0   0.0
  19  0  0  0       18.0   0.0
  20  0  0  0       19.0   0.0
  21  0  1  0       20.0   0.0
*ENDNODES

*PROPERTIES
! ID   m [kg/m]   EA [N]         EJ [N*m^2]
  1    3000.27    1.1466e10      1.5000e10    ! Baseline (Sano)
  2    3000.27    1.1466e10      1.0500e10    ! Danno flessionale -30%
*ENDPROPERTIES

*BEAMS
! ID  n1  n2  prop_id
  1   1   2   1
  2   2   3   1
  3   3   4   1
  4   4   5   1
  5   5   6   1
  6   6   7   1
  7   7   8   1
  8   8   9   1
  9   9   10  1
  10  10  11  1
  11  11  12  1
  12  12  13  1
  13  13  14  1
  14  14  15  1
  15  15  16  1
  16  16  17  1
  17  17  18  1
  18  18  19  1
  19  19  20  1
  20  20  21  1
*ENDBEAMS

*DECK
1 2 3 4 5 6 7 8 9 10 11 12 13 14 15 16 17 18 19 20
*ENDDECK
