! Benchmark 2: Ponte Ferroviario a Travatura Reticolare tipo Warren (20 m di luce, altezza 3 m)
! Il convoglio transita sul corrente inferiore (*DECK)

*NODES
! ID  vx vy vtheta  x      y
  1   1  1  0       0.0    0.0     ! Spalla sinistra (Cerniera fissa)
  2   0  0  0       5.0    0.0     ! Corrente inferiore
  3   0  0  0       10.0   0.0     ! Mezzeria inferiore
  4   0  0  0       15.0   0.0     ! Corrente inferiore
  5   0  1  0       20.0   0.0     ! Spalla destra (Carrello mobile)
  6   0  0  0       2.5    3.0     ! Corrente superiore
  7   0  0  0       7.5    3.0     ! Corrente superiore
  8   0  0  0       12.5   3.0     ! Corrente superiore
  9   0  0  0       17.5   3.0     ! Corrente superiore
*ENDNODES

*PROPERTIES
! ID   m [kg/m]   EA [N]       EJ [N*m^2]
  1    1500.0     5.000e9      2.000e8    ! Corrente inferiore (Deck)
  2    1000.0     4.000e9      1.000e8    ! Corrente superiore
  3    500.0      2.000e9      5.000e7    ! Diagonali reticolari (Sane)
  4    500.0      1.000e9      2.500e7    ! Diagonale danneggiata (-50% rigidezza assiale)
*ENDPROPERTIES

*BEAMS
! ID  n1  n2  prop_id
! Corrente inferiore (Deck)
  1   1   2   1
  2   2   3   1
  3   3   4   1
  4   4   5   1
! Corrente superiore
  5   6   7   2
  6   7   8   2
  7   8   9   2
! Diagonali reticolari
  8   1   6   3
  9   6   2   3
  10  2   7   3
  11  7   3   3
  12  3   8   3
  13  8   4   3
  14  4   9   3
  15  9   5   3
*ENDBEAMS

*DECK
1 2 3 4
*ENDDECK
